1000
[100,101,103,104,107,110,111,112,113,114,115,116,117,118,121,123,124,126,129,133,136,140,144,147,148,149,150,157,158,159,160,161,162,163,164,166,168,175,176,177,178,180,181,184,187,189,190,195,196,200,202,205,206,207,208,210,212,213,215,216,218,219,220,221,224,225,227,233,237,238,241,242,250,252,253,254,255,259,260,261,262,263,267,271,272,274,275,276,277,280,281,282,284,290,291,294,296,298,300,301,303,304,308,310,315,316,319,320,322,325,327,328,331,333,335,341,342,343,346,351,353,354,355,356,358,359,362,364,365,368,371,372,374,375,376,380,381,383,384,386,387,392,393,396,398,399,401,402,404,405,406,410,413,415,417,418,420,422,424,425,430,431,432,435,436,440,441,444,446,450,453,454,462,465,470,473,476,477,478,480,492,496,498,501,503,504,506,510,511,513,514,515,516,517,518,520,521,522,523,524,527,529,530,531,533,535,536,537,540,541,543,545,546,547,548,555,558,559,561,562,564,566,567,569,572,574,576,578,580,582,589,590,591,595,596,598,600,601,603,606,608,609,610,613,616,617,618,622,625,626,628,629,630,631,633,634,635,636,637,639,644,646,647,649,650,659,662,664,665,666,668,669,670,671,672,673,674,675,676,677,678,681,684,685,686,689,690,692,693,694,696,697,698,701,702,704,706,708,709,711,713,714,717,718,719,721,722,723,725,728,733,734,738,740,742,743,747,750,751,754,755,756,757,758,759,761,763,765,769,770,772,774,776,777,779,780,782,783,784,785,788,790,791,796,797,799,800]
[2,1,3,1,2,2,1,3,1,1,2,1,1,1,1,2,1,1,2,1,1,1,1,2,1,2,1,1,1,1,1,1,1,2,2,1,1,1,1,1,1,1,1,1,3,1,1,1,1,2,1,1,2,1,2,1,1,2,1,2,1,2,1,1,2,3,3,2,2,2,1,1,1,1,2,1,1,2,1,2,1,1,1,1,1,2,1,1,1,1,1,1,1,1,2,2,2,2,1,1,3,1,2,2,2,1,1,2,2,5,1,1,1,2,1,1,2,1,2,1,2,1,3,1,2,1,1,1,1,1,1,2,1,1,3,2,1,1,1,1,1,1,1,1,1,1,2,1,1,1,2,2,2,1,1,2,3,2,1,1,4,2,1,2,1,1,1,2,1,2,3,1,2,1,1,1,1,1,2,2,1,1,3,1,1,3,2,1,2,1,2,2,2,1,1,2,1,2,2,2,3,2,1,2,1,1,1,2,1,1,2,1,2,1,1,1,1,2,1,2,1,1,1,1,1,1,1,1,1,1,1,1,2,1,1,2,1,4,1,1,2,1,1,1,1,2,3,1,2,4,1,1,1,1,1,1,2,1,1,1,1,1,2,2,1,1,2,1,2,2,2,4,1,2,1,1,1,1,1,1,1,1,1,2,2,1,2,1,1,2,1,1,3,2,3,1,2,1,1,2,1,1,1,1,1,1,2,1,1,1,1,2,1,1,2,1,1,1,1,1,1,1,1,2,1,2,3,2,2,1,3,4,1,1,2,2,1,1,1,1,1,1,1,1,1,1,1]
